100
32
28
12
21
3
13
19
12
21
24
14
20
4
4
11
13
22
3
12
14
1
20
21
2
5
2
10
16
21
21
2
3
11
10
18
13
11
11
13
19
1
9
31
9
9
15
26
8
9
1
15
19
6
9
9
1
12
19
7
10
28
22
5
14
23
1
2
19
1
13
13
3
3
1
19
29
17
6
11
9
9
5
16
1
1
4
4
1
2
1
1
3
18
4
1
4
2
3
4
26
6